(set-logic QF_S)
(declare-fun var0 () String)
(declare-fun var1 () String)
(declare-fun var2 () String)
(declare-fun var3 () Int)
(declare-fun var4 () String)
(declare-fun var5 () Int)
(declare-fun var6 () Int)
(declare-fun var7 () Int)
(assert (str.suffixof var0 var1))
(assert (str.contains (str.substr var2 var3 91) (str.substr var4 var5 var6)))
(assert (str.in.re (str.substr "" var7 var3) (re.* re.allchar)))
(assert (>= 70 var3))
(check-sat)